160210
39,87,68,105,91,22,11,92,88,86,43,65,58,9,26,27,75,57,0,23,73,42,78,90,59,95,93,100,2,77,104,37,103,84,61,20,16,89,63,15,55,19,4,29,28,54,96,7,51,64,30,12,97,41,80,18,67,98,8,56,79,82,33,25,49,101,13,46,60,14,3,102,74,34,50,99,44,24,71,81,32,83,6,52,62,31,17,69,36,48,38,53,66,40,10,94,70,35,47,72,1,21,45,76,85,5
